<instance format="XCSP3" type="CSP">
  <variables>
    <var id="x0"> 4 6 13 </var>
    <var id="x1"> 4 6 12 </var>
    <var id="x2"> 0 1 12 13 </var>
    <var id="x3"> 0 2 4 6 </var>
    <var id="x4"> 0..2 6 12 </var>
    <var id="x5"> 0..2 4 13 </var>
    <var id="x6"> 0 2 13 </var>
    <var id="x7"> 9 12 </var>
    <var id="x8"> 3 8 12 </var>
    <var id="x9"> 3 4 8 </var>
    <var id="x10"> 2 12 </var>
    <var id="x11"> 3 4 8 </var>
    <var id="x12"> 3 5 8 12 </var>
    <var id="x13"> 4 5 12 </var>
    <var id="x14"> 7 8 11 </var>
    <var id="x15"> 1 7 12 </var>
    <var id="x16"> 10..12 </var>
    <var id="x17"> 1 2 7 12 </var>
    <var id="x18"> 7 8 11 </var>
    <var id="x19"> 1 7 8 12 </var>
    <var id="x20"> 10..12 </var>
    <var id="x21"> 1 7 12 14 </var>
    <var id="x22"> 2 7 8 12 14 </var>
    <var id="x23"> 1 4 7 8 14 </var>
    <var id="x24"> 1 2 7 12 14 </var>
    <var id="x25"> 4 7 8 14 </var>
    <var id="x26"> 2 8 </var>
    <var id="x27"> 4 12 </var>
    <var id="x28"> 4 5 14 </var>
    <var id="x29"> 7 8 14 </var>
    <var id="x30"> 5 7 9 13 </var>
    <var id="x31"> 4 7 8 14 </var>
    <var id="x32"> 4 7 9 13 </var>
    <var id="x33"> 8 13 </var>
    <var id="x34"> 5 7 8 14 </var>
    <var id="x35"> 6 7 9 11 </var>
    <var id="x36"> 0 1 7 9 12 </var>
    <var id="x37"> 0 7 11 12 </var>
    <var id="x38"> 0 6 9 </var>
    <var id="x39"> 1 6 7 </var>
    <var id="x40"> 0 1 6 7 12 </var>
    <var id="x41"> 0 1 7 9 </var>
    <var id="x42"> 3 8 10 12 </var>
    <var id="x43"> 5 14 </var>
    <var id="x44"> 3 8 14 </var>
    <var id="x45"> 5 12 </var>
    <var id="x46"> 3 5 11 12 </var>
    <var id="x47"> 3 </var>
    <var id="x48"> 3 5 8 12 14 </var>
    <var id="x49"> 0 8 </var>
    <var id="x50"> 7 8 14 </var>
    <var id="x51"> 9 11 </var>
    <var id="x52"> 0 2 7 9 </var>
    <var id="x53"> 0 2 8 11 </var>
    <var id="x54"> 7 8 14 </var>
    <var id="x55"> 11 </var>
    <var id="x56"> 4 6 7 13 </var>
    <var id="x57"> 0 3 13 </var>
    <var id="x58"> 0 6 7 14 </var>
    <var id="x59"> 7 13 </var>
    <var id="x60"> 3 4 6 7 14 </var>
    <var id="x61"> 3 4 </var>
    <var id="x62"> 0 3 4 7 13 </var>
    <var id="x63"> 0 1 13 </var>
    <var id="x64"> 6 10 11 </var>
    <var id="x65"> 0 6 </var>
    <var id="x66"> 1 3 6 </var>
    <var id="x67"> 1 13 </var>
    <var id="x68"> 0 3 10 11 13 </var>
    <var id="x69"> 1 3 </var>
    <var id="x70"> 4 7 13 </var>
    <var id="x71"> 7 12 14 </var>
    <var id="x72"> 4 14 </var>
    <var id="x73"> 1 3 4 7 14 </var>
    <var id="x74"> 3 4 7 14 </var>
    <var id="x75"> 1 3 7 12 14 </var>
    <var id="x76"> 4 12 13 </var>
    <var id="x77"> 5 6 11 12 </var>
    <var id="x78"> 0 11 12 </var>
    <var id="x79"> 0 5 6 </var>
    <var id="x80"> 3 6 11 </var>
    <var id="x81"> 1 3 5 11 12 </var>
    <var id="x82"> 0 1 3 </var>
    <var id="x83"> 0 3 11 </var>
    <var id="x84"> 9 12..14 </var>
    <var id="x85"> 5 6 10 12 14 </var>
    <var id="x86"> 8 12 14 </var>
    <var id="x87"> 8 10 12 13 </var>
    <var id="x88"> 6 12 14 </var>
    <var id="x89"> 5 9 12 13 </var>
    <var id="x90"> 5 9 12 </var>
    <var id="x91"> 9 13 </var>
    <var id="x92"> 4 6 7 9 13 </var>
    <var id="x93"> 7 </var>
    <var id="x94"> 3 13 </var>
    <var id="x95"> 5 7 9 13 </var>
    <var id="x96"> 3..5 9 </var>
    <var id="x97"> 3 13 </var>
    <var id="x98"> 4..6 13 </var>
    <var id="x99"> 4 7 11 </var>
    <var id="x100"> 0 1 7 14 </var>
    <var id="x101"> 4 11 14 </var>
    <var id="x102"> 0 2 4 14 </var>
    <var id="x103"> 0..2 7 14 </var>
    <var id="x104"> 1 4 11 </var>
    <var id="x105"> 4 11 </var>
  </variables>
  <constraints>
    <group>
      <allDifferent> %... </allDifferent>
      <args> x0 x1 x2 x3 x4 x5 x6 </args>
      <args> x7 x8 x9 x10 x11 x12 x13 </args>
      <args> x14 x15 x16 x17 x18 x19 x20 </args>
      <args> x21 x22 x23 x24 x25 x26 x27 </args>
      <args> x28 x29 x30 x31 x32 x33 x34 </args>
      <args> x35 x36 x37 x38 x39 x40 x41 </args>
      <args> x42 x43 x44 x45 x46 x47 x48 </args>
      <args> x49 x50 x51 x52 x53 x54 x55 </args>
      <args> x56 x57 x58 x59 x60 x61 x62 </args>
      <args> x63 x64 x65 x66 x67 x68 x69 </args>
      <args> x70 x71 x72 x73 x74 x75 x76 </args>
      <args> x77 x78 x79 x80 x81 x82 x83 </args>
      <args> x84 x85 x86 x87 x88 x89 x90 x91 </args>
      <args> x92 x93 x94 x95 x96 x97 x98 </args>
      <args> x99 x100 x101 x102 x103 x104 x105 </args>
      <args> x0 x14 x35 x56 x70 x92 x99 </args>
      <args> x7 x15 x21 x36 x63 x84 x100 </args>
      <args> x1 x16 x28 x64 x77 x85 x101 </args>
      <args> x22 x29 x37 x71 x78 x86 x93 </args>
      <args> x2 x8 x42 x49 x57 x87 x94 </args>
      <args> x3 x38 x43 x65 x72 x79 x102 </args>
      <args> x9 x23 x39 x44 x50 x66 x73 </args>
      <args> x4 x10 x24 x40 x58 x88 x103 </args>
      <args> x17 x30 x45 x59 x67 x89 x95 </args>
      <args> x11 x18 x25 x31 x60 x74 x80 </args>
      <args> x46 x51 x61 x81 x90 x96 x104 </args>
      <args> x5 x32 x41 x47 x52 x62 x82 x91 </args>
      <args> x6 x26 x33 x53 x68 x83 x97 </args>
      <args> x12 x19 x34 x48 x54 x69 x75 </args>
      <args> x13 x20 x27 x55 x76 x98 x105 </args>
    </group>
  </constraints>
</instance>

